row=10;
column=10;
colour = 10;
Board=[|4,4,4,2,2,10,10,10,9,9|4,4,2,2,2,2,2,9,9,9|4,4,4,4,2,2,2,9,3,3|4,4,4,4,4,3,3,3,3,3|4,4,4,4,6,6,5,5,3,3|4,4,4,4,6,6,6,5,5,3|4,4,1,1,1,1,1,1,1,1|8,8,1,8,1,1,1,1,7,7|8,8,8,8,1,1,1,1,7,7|8,8,8,8,8,8,7,7,7,7|];
